# Cost: 264

# Tail Head Net
25 5 1
40 440 1
45 25 1
46 45 1
47 46 1
48 47 1
49 48 1
262 261 1
263 262 1
264 263 1
265 264 1
266 265 1
267 266 1
268 267 1
269 268 1
369 389 1
439 459 1
440 439 1
449 49 1
449 469 1
450 449 1
451 450 1
452 451 1
453 452 1
454 453 1
455 454 1
456 455 1
457 456 1
458 457 1
459 458 1
469 489 1
489 509 1
509 529 1
529 549 1
549 569 1
569 589 1
589 609 1
609 629 1
629 649 1
649 669 1
669 269 1
669 689 1
689 709 1
709 729 1
729 749 1
749 769 1
769 369 1
31 11 2
51 31 2
62 61 2
63 62 2
64 63 2
65 64 2
66 65 2
67 66 2
68 67 2
69 68 2
70 69 2
71 51 2
71 70 2
91 71 2
111 91 2
131 111 2
151 131 2
171 151 2
191 171 2
211 191 2
231 211 2
251 231 2
251 271 2
252 251 2
253 252 2
254 253 2
255 254 2
256 255 2
257 256 2
258 257 2
259 258 2
260 259 2
270 290 2
271 270 2
282 281 2
283 282 2
284 283 2
285 284 2
286 285 2
287 286 2
288 287 2
289 288 2
290 289 2
279 280 3
299 279 3
319 299 3
339 319 3
341 342 3
342 343 3
343 344 3
344 345 3
345 346 3
346 347 3
347 348 3
348 349 3
349 350 3
350 370 3
359 339 3
370 371 3
370 390 3
371 372 3
372 373 3
373 374 3
374 375 3
375 376 3
376 377 3
377 378 3
378 379 3
379 359 3
379 399 3
14 13 4
34 14 4
54 34 4
55 54 4
56 55 4
57 56 4
58 57 4
59 58 4
60 59 4
60 460 4
460 480 4
480 500 4
500 520 4
520 540 4
540 560 4
560 580 4
580 600 4
600 620 4
620 640 4
640 660 4
660 680 4
680 700 4
700 720 4
720 740 4
740 760 4
760 780 4
780 380 4
16 17 5
16 36 5
36 436 5
368 388 5
428 448 5
429 428 5
430 429 5
431 430 5
432 431 5
433 432 5
434 433 5
435 434 5
436 435 5
448 468 5
468 488 5
488 508 5
508 528 5
528 548 5
548 568 5
568 588 5
588 608 5
608 628 5
628 648 5
648 668 5
668 688 5
688 708 5
708 728 5
728 748 5
748 768 5
768 368 5
2 1 6
3 2 6
18 19 6
19 20 6
366 766 6
386 366 6
403 3 6
404 403 6
405 404 6
406 405 6
406 407 6
407 408 6
408 409 6
409 410 6
410 411 6
411 412 6
412 413 6
413 414 6
414 415 6
415 416 6
416 417 6
417 418 6
418 18 6
426 406 6
446 426 6
466 446 6
486 466 6
506 486 6
526 506 6
546 526 6
566 546 6
586 566 6
606 586 6
626 606 6
646 626 6
666 646 6
686 666 6
706 686 6
726 706 6
746 726 6
766 746 6
6 7 7
7 27 7
27 427 7
367 387 7
427 447 7
447 467 7
467 487 7
487 507 7
507 527 7
527 547 7
547 567 7
567 587 7
587 607 7
607 627 7
627 647 7
647 667 7
667 687 7
687 707 7
707 727 7
727 747 7
747 767 7
767 367 7
199 219 8
200 199 8
219 619 8
619 639 8
639 659 8
658 678 8
659 658 8
677 697 8
678 677 8
695 715 8
696 695 8
697 696 8
711 731 8
712 711 8
713 712 8
714 713 8
715 714 8
731 751 8
750 770 8
751 750 8
770 790 8
785 385 8
786 785 8
787 786 8
788 787 8
789 788 8
790 789 8
